NAME          BLANK   
ROWS
 N  OBJROW
 L  R0000000
COLUMNS
    C0000000  OBJROW     -305.         R0000000  157.        
    C0000001  OBJROW     -976.         R0000000  808.        
    C0000002  OBJROW     -961.         R0000000  565.        
    C0000003  OBJROW     -442.         R0000000  716.        
    C0000004  OBJROW     -543.         R0000000  778.        
    C0000005  OBJROW     -910.         R0000000  119.        
    C0000006  OBJROW     -955.         R0000000  369.        
    C0000007  OBJROW     -429.         R0000000  118.        
    C0000008  OBJROW     -766.         R0000000  150.        
    C0000009  OBJROW     -119.         R0000000  828.        
    C0000010  OBJROW     -610.         R0000000  507.        
    C0000011  OBJROW     -530.         R0000000  979.        
    C0000012  OBJROW     -947.         R0000000  102.        
RHS
    RHS       R0000000  13900.      
BOUNDS
 BV BOUND     C0000000  1.          
 BV BOUND     C0000001  1.          
 BV BOUND     C0000002  1.          
 BV BOUND     C0000003  1.          
 BV BOUND     C0000004  1.          
 BV BOUND     C0000005  1.          
 BV BOUND     C0000006  1.          
 BV BOUND     C0000007  1.          
 BV BOUND     C0000008  1.          
 BV BOUND     C0000009  1.          
 BV BOUND     C0000010  1.          
 BV BOUND     C0000011  1.          
 BV BOUND     C0000012  1.          
ENDATA
